Traveling Salesman Problem/TSP_generados/Aleatorio1620390961_10.tsp
NAME: Aleatorio1620390961_10.tsp
COMMENT: Randomly generated scenario
TYPE: TSP
DIMENSION: 10
EDGE_WEIGHT_TYPE: ATT
NODE_COORD_SECTION
1 17.11 5.63
2 8.68 6.53
3 24.48 46.12
4 0.02 4.65
5 14.29 2.09
6 14.12 12.37
7 8.03 29.69
8 9.81 44.25
9 18.86 2.58
10 0.09 40.42
