Traveling Salesman Problem/TSP_generados/Aleatorio1620390961_10.opt.tour
NAME: Aleatorio1620390961_10.opt.tour
COMMENT: Optimal solution for Aleatorio1620390961_10 (131.68073733849621)
TYPE: TOUR
DIMENSION: 10
TOUR_SECTION
1 6 3 8 10 7 4 2 5 9
-1
EOF
